************************************************************************
file with basedata            : mm19_.bas
initial value random generator: 822750424
************************************************************************
projects                      :  1
jobs (incl. supersource/sink ):  12
horizon                       :  88
RESOURCES
  - renewable                 :  2   R
  - nonrenewable              :  2   N
  - doubly constrained        :  0   D
************************************************************************
PROJECT INFORMATION:
pronr.  #jobs rel.date duedate tardcost  MPM-Time
    1     10      0       13        2       13
************************************************************************
PRECEDENCE RELATIONS:
jobnr.    #modes  #successors   successors
   1        1          3           2   3   4
   2        3          3           5   6  11
   3        3          1           9
   4        3          2          10  11
   5        3          3           7   8  10
   6        3          1          10
   7        3          1           9
   8        3          1           9
   9        3          1          12
  10        3          1          12
  11        3          1          12
  12        1          0        
************************************************************************
REQUESTS/DURATIONS:
jobnr. mode duration  R 1  R 2  N 1  N 2
------------------------------------------------------------------------
  1      1     0       0    0    0    0
  2      1     5       0    8    5    0
         2     7       0    8    0    4
         3    10       0    3    4    0
  3      1     4       1    0    0    5
         2     6       1    0    5    0
         3     9       0    9    0    4
  4      1     4       0    2    0    2
         2     7       6    0    0    1
         3    10       5    0    0    1
  5      1     3       3    0    0    6
         2     3       1    0    0    7
         3     5       0    2    6    0
  6      1     2       4    0    0    9
         2     6       0    1    0    8
         3    10       2    0    0    8
  7      1     3       0    5    6    0
         2     5       6    0    0   10
         3     9       0    3    5    0
  8      1     4      10    0    0    6
         2     8       8    0    0    4
         3     9       3    0    0    1
  9      1     1       2    0    0   10
         2     8       0    4    0    8
         3    10       2    0    3    0
 10      1     3       5    0    0    5
         2     6       4    0    9    0
         3     9       4    0    8    0
 11      1     1       2    0    0    6
         2     7       0    3    4    0
         3     7       1    0    0    4
 12      1     0       0    0    0    0
************************************************************************
RESOURCEAVAILABILITIES:
  R 1  R 2  N 1  N 2
   16   14   27   48
************************************************************************
************************************************************************
MAXIMAL LAGS:
from  to  type  delay
    1    2   EE      5
    1    3   ES      0
    1    4   SE     -2
    2    5   SE      0
    2    6   ES      5
    2   11   SS      0
    3    9   EE      2
    4   10   SE     -1
    4   11   SE      2
    5    7   ES     -3
    5    8   ES     -1
    5   10   SE      4
    6   10   ES     -1
    7    9   EE     -3
    8    9   SS     -3
    9   12   SE      0
   10   12   SS      5
   11   12   EE     -3
************************************************************************
